; benchmark generated from python API
(set-info :status unknown)
(declare-fun x_months () Int)
(declare-fun x_beta () Int)
(assert
 (<= (- 1200) x_months))
(assert
 (>= 1199 x_months))
(assert
 (>= x_beta 0))
(assert
 (let ((?x666 (+ x_months 24003)))
 (let ((?x5494 (- ?x666 (* (div (- ?x666 1) 12) 12))))
 (let ((?x853 (ite (or (= ?x5494 4) (= ?x5494 6) (= ?x5494 9) (= ?x5494 11)) 30 31)))
 (let (($x1822 (and (= (mod (div (- ?x666 1) 12) 4) 0) (and (distinct (mod (div (- ?x666 1) 12) 100) 0) true))))
 (let ((?x4592 (ite (or $x1822 (= (mod (div (- ?x666 1) 12) 400) 0)) 29 28)))
 (< x_beta (ite (= ?x5494 2) ?x4592 ?x853))))))))
(assert
 (let (($x1634 (and (= x_months (- (+ (* 2023 12) 1) 24003)) (<= 0 x_beta))))
 (or (> x_months (- (+ (* 2023 12) 1) 24003)) $x1634)))
(assert
 (let ((?x4173 (+ x_beta 1)))
(let ((?x4144 (+ (+ x_months 0) 24003)))
(let ((?x4584 (- ?x4144 (* (div (- ?x4144 1) 12) 12))))
(let ((?x4230 (ite (or (= ?x4584 4) (= ?x4584 6) (= ?x4584 9) (= ?x4584 11)) 30 31)))
(let (($x3992 (and (= (mod (div (- ?x4144 1) 12) 4) 0) (and (distinct (mod (div (- ?x4144 1) 12) 100) 0) true))))
(let (($x2866 (or $x3992 (= (mod (div (- ?x4144 1) 12) 400) 0))))
(let ((?x622 (ite (= ?x4584 2) (ite $x2866 29 28) ?x4230)))
(let (($x4513 (> 1 ?x4173)))
(let ((?x2273 (ite $x4513 1 (ite (> ?x4173 ?x622) ?x622 ?x4173))))
(let ((?x901 (ite (> 1 ?x2273) 1 (ite (> ?x2273 ?x622) ?x622 ?x2273))))
(let ((?x2748 (ite (= 2 ?x4584) (ite $x2866 31 31) (ite (= 1 ?x4584) (ite $x2866 0 0) 0))))
(let ((?x1731 (ite (= 4 ?x4584) (ite $x2866 91 90) (ite (= 3 ?x4584) (ite $x2866 60 59) ?x2748))))
(let ((?x2036 (ite (= 6 ?x4584) (ite $x2866 152 151) (ite (= 5 ?x4584) (ite $x2866 121 120) ?x1731))))
(let ((?x3572 (ite (= 8 ?x4584) (ite $x2866 213 212) (ite (= 7 ?x4584) (ite $x2866 182 181) ?x2036))))
(let ((?x3716 (ite (= 10 ?x4584) (ite $x2866 274 273) (ite (= 9 ?x4584) (ite $x2866 244 243) ?x3572))))
(let ((?x540 (ite (= 12 ?x4584) (ite $x2866 335 334) (ite (= 11 ?x4584) (ite $x2866 305 304) ?x3716))))
(let ((?x5412 (+ (* 365 (- (div (- ?x4144 1) 12) 1)) (div (- (div (- ?x4144 1) 12) 1) 4))))
(let ((?x1802 (+ (- ?x5412 (div (- (div (- ?x4144 1) 12) 1) 100)) (div (- (div (- ?x4144 1) 12) 1) 400))))
(let ((?x3543 (+ (+ (- (+ (+ ?x1802 ?x540) (- ?x901 1)) 730179) 31) 730179)))
(let ((?x3983 (mod ?x3543 146097)))
(let ((?x1541 (div ?x3983 36524)))
(let ((?x4054 (ite (<= 4 ?x1541) 3 ?x1541)))
(let ((?x2419 (- ?x3983 (* ?x4054 36524))))
(let ((?x2699 (mod ?x2419 1461)))
(let ((?x3535 (div ?x2699 365)))
(let ((?x5497 (ite (<= 4 ?x3535) 3 ?x3535)))
(let ((?x1904 (+ (+ (* (div ?x3543 146097) 400) (* ?x4054 100)) (* (div ?x2419 1461) 4))))
(let ((?x3651 (+ (+ ?x1904 ?x5497) 1)))
(let (($x1013 (or (and (= (mod ?x3651 4) 0) (and (distinct (mod ?x3651 100) 0) true)) (= (mod ?x3651 400) 0))))
(let ((?x2029 (- ?x2699 (* ?x5497 365))))
(let ((?x4744 (ite $x1013 31 31)))
(let (($x1111 (>= ?x2029 ?x4744)))
(let ((?x3196 (ite $x1111 (+ (- ?x2029 ?x4744) 1) (+ (- ?x2029 (ite $x1013 0 0)) 1))))
(let ((?x2887 (ite $x1013 60 59)))
(let (($x4599 (>= ?x2029 ?x2887)))
(let ((?x1759 (ite $x1013 91 90)))
(let (($x3984 (>= ?x2029 ?x1759)))
(let ((?x1687 (ite $x3984 (+ (- ?x2029 ?x1759) 1) (ite $x4599 (+ (- ?x2029 ?x2887) 1) ?x3196))))
(let ((?x2154 (ite $x1013 121 120)))
(let (($x1057 (>= ?x2029 ?x2154)))
(let ((?x1422 (ite $x1013 152 151)))
(let (($x1376 (>= ?x2029 ?x1422)))
(let ((?x5082 (ite $x1376 (+ (- ?x2029 ?x1422) 1) (ite $x1057 (+ (- ?x2029 ?x2154) 1) ?x1687))))
(let ((?x3233 (ite $x1013 182 181)))
(let (($x4220 (>= ?x2029 ?x3233)))
(let ((?x3320 (ite $x1013 213 212)))
(let (($x1537 (>= ?x2029 ?x3320)))
(let ((?x4673 (ite $x1537 (+ (- ?x2029 ?x3320) 1) (ite $x4220 (+ (- ?x2029 ?x3233) 1) ?x5082))))
(let ((?x3323 (ite $x1013 244 243)))
(let (($x2332 (>= ?x2029 ?x3323)))
(let ((?x1884 (ite $x1013 274 273)))
(let (($x3689 (>= ?x2029 ?x1884)))
(let ((?x5135 (ite $x3689 (+ (- ?x2029 ?x1884) 1) (ite $x2332 (+ (- ?x2029 ?x3323) 1) ?x4673))))
(let ((?x4613 (ite $x1013 305 304)))
(let (($x599 (>= ?x2029 ?x4613)))
(let ((?x3095 (ite $x1013 335 334)))
(let (($x2961 (>= ?x2029 ?x3095)))
(let ((?x2587 (ite $x2961 (+ (- ?x2029 ?x3095) 1) (ite $x599 (+ (- ?x2029 ?x4613) 1) ?x5135))))
(let (($x3199 (= 31 0)))
(let ((?x4489 (+ (+ x_months 1) 24003)))
(let ((?x4116 (- ?x4489 (* (div (- ?x4489 1) 12) 12))))
(let ((?x2055 (ite (or (= ?x4116 4) (= ?x4116 6) (= ?x4116 9) (= ?x4116 11)) 30 31)))
(let (($x4458 (and (= (mod (div (- ?x4489 1) 12) 4) 0) (and (distinct (mod (div (- ?x4489 1) 12) 100) 0) true))))
(let (($x4417 (or $x4458 (= (mod (div (- ?x4489 1) 12) 400) 0))))
(let ((?x3956 (ite (= ?x4116 2) (ite $x4417 29 28) ?x2055)))
(let ((?x3618 (ite $x4513 1 (ite (> ?x4173 ?x3956) ?x3956 ?x4173))))
(let ((?x412 (ite (> 1 ?x3618) 1 (ite (> ?x3618 ?x3956) ?x3956 ?x3618))))
(let ((?x889 (ite (= 2 ?x4116) (ite $x4417 31 31) (ite (= 1 ?x4116) (ite $x4417 0 0) 0))))
(let ((?x1449 (ite (= 4 ?x4116) (ite $x4417 91 90) (ite (= 3 ?x4116) (ite $x4417 60 59) ?x889))))
(let ((?x1902 (ite (= 6 ?x4116) (ite $x4417 152 151) (ite (= 5 ?x4116) (ite $x4417 121 120) ?x1449))))
(let ((?x4208 (ite (= 8 ?x4116) (ite $x4417 213 212) (ite (= 7 ?x4116) (ite $x4417 182 181) ?x1902))))
(let ((?x3787 (ite (= 10 ?x4116) (ite $x4417 274 273) (ite (= 9 ?x4116) (ite $x4417 244 243) ?x4208))))
(let ((?x1877 (ite (= 12 ?x4116) (ite $x4417 335 334) (ite (= 11 ?x4116) (ite $x4417 305 304) ?x3787))))
(let ((?x3862 (+ (* 365 (- (div (- ?x4489 1) 12) 1)) (div (- (div (- ?x4489 1) 12) 1) 4))))
(let ((?x1656 (+ (- ?x3862 (div (- (div (- ?x4489 1) 12) 1) 100)) (div (- (div (- ?x4489 1) 12) 1) 400))))
(let ((?x3845 (+ (+ (- (+ (+ ?x1656 ?x1877) (- ?x412 1)) 730179) 0) 730179)))
(let ((?x3886 (mod ?x3845 146097)))
(let ((?x5376 (div ?x3886 36524)))
(let ((?x1779 (ite (<= 4 ?x5376) 3 ?x5376)))
(let ((?x2892 (- ?x3886 (* ?x1779 36524))))
(let ((?x3883 (mod ?x2892 1461)))
(let ((?x5444 (div ?x3883 365)))
(let ((?x4313 (ite (<= 4 ?x5444) 3 ?x5444)))
(let ((?x827 (+ (+ (* (div ?x3845 146097) 400) (* ?x1779 100)) (* (div ?x2892 1461) 4))))
(let ((?x4906 (+ (+ ?x827 ?x4313) 1)))
(let (($x4233 (or (and (= (mod ?x4906 4) 0) (and (distinct (mod ?x4906 100) 0) true)) (= (mod ?x4906 400) 0))))
(let ((?x3312 (- ?x3883 (* ?x4313 365))))
(let ((?x1036 (ite $x4233 31 31)))
(let (($x1374 (>= ?x3312 ?x1036)))
(let ((?x2611 (ite $x1374 (+ (- ?x3312 ?x1036) 1) (+ (- ?x3312 (ite $x4233 0 0)) 1))))
(let ((?x664 (ite $x4233 60 59)))
(let (($x4644 (>= ?x3312 ?x664)))
(let ((?x4456 (ite $x4233 91 90)))
(let (($x1607 (>= ?x3312 ?x4456)))
(let ((?x3747 (ite $x1607 (+ (- ?x3312 ?x4456) 1) (ite $x4644 (+ (- ?x3312 ?x664) 1) ?x2611))))
(let ((?x3793 (ite $x4233 121 120)))
(let (($x4067 (>= ?x3312 ?x3793)))
(let ((?x4098 (ite $x4233 152 151)))
(let (($x3493 (>= ?x3312 ?x4098)))
(let ((?x649 (ite $x3493 (+ (- ?x3312 ?x4098) 1) (ite $x4067 (+ (- ?x3312 ?x3793) 1) ?x3747))))
(let ((?x1785 (ite $x4233 182 181)))
(let (($x5483 (>= ?x3312 ?x1785)))
(let ((?x3704 (ite $x4233 213 212)))
(let (($x3741 (>= ?x3312 ?x3704)))
(let ((?x4179 (ite $x3741 (+ (- ?x3312 ?x3704) 1) (ite $x5483 (+ (- ?x3312 ?x1785) 1) ?x649))))
(let ((?x2418 (ite $x4233 244 243)))
(let (($x4378 (>= ?x3312 ?x2418)))
(let ((?x5088 (ite $x4233 274 273)))
(let (($x5293 (>= ?x3312 ?x5088)))
(let ((?x5201 (ite $x5293 (+ (- ?x3312 ?x5088) 1) (ite $x4378 (+ (- ?x3312 ?x2418) 1) ?x4179))))
(let ((?x2364 (ite $x4233 305 304)))
(let (($x2652 (>= ?x3312 ?x2364)))
(let ((?x3638 (ite $x4233 335 334)))
(let (($x4939 (>= ?x3312 ?x3638)))
(let ((?x2549 (ite $x4939 (+ (- ?x3312 ?x3638) 1) (ite $x2652 (+ (- ?x3312 ?x2364) 1) ?x5201))))
(let (($x964 (= 0 0)))
(let ((?x4254 (ite $x1057 5 (ite $x3984 4 (ite $x4599 3 (ite $x1111 2 1))))))
(let ((?x5282 (ite $x2332 9 (ite $x1537 8 (ite $x4220 7 (ite $x1376 6 ?x4254))))))
(let ((?x2701 (ite $x2961 12 (ite $x599 11 (ite $x3689 10 ?x5282)))))
(let ((?x4270 (+ (* (ite $x3199 (div (- ?x4144 1) 12) ?x3651) 12) (ite $x3199 ?x4584 ?x2701))))
(let ((?x1190 (- ?x4270 24003)))
(let ((?x4924 (ite $x4067 5 (ite $x1607 4 (ite $x4644 3 (ite $x1374 2 1))))))
(let ((?x2344 (ite $x4378 9 (ite $x3741 8 (ite $x5483 7 (ite $x3493 6 ?x4924))))))
(let ((?x1372 (+ (* (ite $x964 (div (- ?x4489 1) 12) ?x4906) 12) (ite $x964 ?x4116 (ite $x4939 12 (ite $x2652 11 (ite $x5293 10 ?x2344)))))))
(let ((?x2802 (- ?x1372 24003)))
(let (($x2950 (and (= ?x2802 ?x1190) (<= (- (ite $x964 ?x412 ?x2549) 1) (- (ite $x3199 ?x901 ?x2587) 1)))))
(not (or (< ?x2802 ?x1190) $x2950)))))))))))))))))))))))))))))))))))))))))))))))))))))))))))))))))))))))))))))))))))))))))))))))))))))))))))))))))))))))))))))))))
(check-sat)
